NAME : LPS-n7-m338
COMMENT : (Lartu-Peter-Santi Plot, instance 1938 out of 39200. 7 customers.)
TYPE : CVRP
DIMENSION : 7
EDGE_WEIGHT_TYPE : EUC_2D
CAPACITY : 144
NODE_COORD_SECTION
 1 23 89
 2 61 63
 3 5 11
 4 36 80
 5 14 8
 6 68 82
 7 3 56
DEMAND_SECTION
1 0
2 47
3 140
4 53
5 18
6 10
7 86
DEPOT_SECTION
 1
 -1
EOF
